=obj= 610
occ(235) 0
occ(1) 0
occ(248) 0
occ(2) 0
occ(4) 0
occ(5) 0
occ(29) 0
occ(6) 0
occ(7) 0
occ(854) 0
occ(8) 0
occ(9) 1
occ(11) 1
occ(855) 0
occ(12) 0
occ(13) 1
occ(238) 0
occ(14) 0
occ(16) 0
occ(18) 0
occ(20) 1
occ(0) 1
occ(21) 1
occ(251) 0
occ(24) 0
occ(304) 1
occ(25) 1
occ(26) 0
occ(27) 0
occ(28) 0
occ(30) 0
occ(31) 1
occ(33) 1
occ(348) 0
occ(34) 0
occ(36) 1
occ(37) 1
occ(256) 0
occ(38) 0
occ(39) 1
occ(41) 1
occ(841) 0
occ(42) 0
occ(43) 0
occ(1824) 1
occ(44) 1
occ(45) 1
occ(46) 0
occ(47) 0
occ(48) 0
occ(49) 1
occ(50) 1
occ(51) 0
occ(52) 0
occ(54) 0
occ(40) 1
occ(55) 1
occ(56) 1
occ(57) 1
occ(1825) 1
occ(58) 1
occ(59) 0
occ(1826) 0
occ(60) 0
occ(32) 0
occ(61) 0
occ(62) 0
occ(72) 1
occ(63) 1
occ(64) 1
occ(65) 0
occ(66) 0
occ(67) 1
occ(68) 0
occ(69) 0
occ(70) 0
occ(71) 0
occ(73) 1
occ(74) 0
occ(75) 0
occ(76) 1
occ(77) 0
occ(78) 0
occ(79) 0
occ(80) 0
occ(81) 0
occ(82) 1
occ(83) 1
occ(174) 0
occ(84) 0
occ(187) 0
occ(85) 0
occ(86) 1
occ(87) 1
occ(90) 1
occ(863) 0
occ(91) 0
occ(92) 1
occ(865) 0
occ(93) 0
occ(94) 0
occ(867) 0
occ(95) 0
occ(96) 0
occ(97) 1
occ(1666) 0
occ(98) 0
occ(99) 1
occ(1827) 1
occ(101) 1
occ(1841) 0
occ(102) 0
occ(1850) 1
occ(103) 1
occ(2131) 0
occ(104) 0
occ(105) 0
occ(2142) 0
occ(106) 0
occ(107) 0
occ(108) 1
occ(109) 0
occ(110) 0
occ(111) 1
occ(112) 1
occ(114) 1
occ(113) 1
occ(1679) 0
occ(115) 0
occ(116) 0
occ(117) 1
occ(118) 0
occ(119) 1
occ(120) 0
occ(121) 0
occ(122) 0
occ(123) 1
occ(124) 0
occ(125) 0
occ(126) 1
occ(127) 0
occ(128) 1
occ(129) 0
occ(130) 0
occ(131) 1
occ(132) 0
occ(2147) 0
occ(133) 0
occ(134) 0
occ(135) 0
occ(136) 1
occ(137) 0
occ(138) 0
occ(139) 0
occ(140) 0
occ(141) 0
occ(142) 0
occ(143) 0
occ(144) 0
occ(145) 0
occ(146) 0
occ(147) 0
occ(148) 0
occ(149) 0
occ(150) 0
occ(151) 0
occ(152) 0
occ(153) 0
occ(154) 0
occ(155) 1
occ(156) 0
occ(157) 0
occ(158) 0
occ(159) 0
occ(160) 1
occ(161) 0
occ(162) 0
occ(163) 0
occ(164) 1
occ(165) 0
occ(166) 0
occ(167) 0
occ(168) 1
occ(169) 0
occ(170) 0
occ(171) 0
occ(172) 0
occ(173) 0
occ(175) 0
occ(176) 0
occ(177) 1
occ(178) 0
occ(179) 0
occ(180) 0
occ(181) 0
occ(224) 0
occ(182) 0
occ(183) 0
occ(184) 0
occ(185) 1
occ(186) 0
occ(188) 0
occ(189) 1
occ(190) 0
occ(191) 0
occ(193) 0
occ(194) 0
occ(195) 0
occ(196) 0
occ(197) 0
occ(198) 1
occ(199) 1
occ(201) 1
occ(203) 0
occ(204) 0
occ(205) 0
occ(206) 1
occ(207) 0
occ(208) 0
occ(209) 0
occ(210) 0
occ(211) 0
occ(212) 0
occ(213) 0
occ(214) 1
occ(215) 0
occ(216) 0
occ(217) 0
occ(218) 0
occ(219) 0
occ(220) 1
occ(221) 0
occ(222) 0
occ(88) 1
occ(223) 1
occ(225) 1
occ(226) 0
occ(227) 1
occ(228) 0
occ(229) 0
occ(231) 0
occ(232) 0
occ(233) 0
occ(234) 0
occ(305) 0
occ(236) 0
occ(237) 1
occ(306) 0
occ(239) 0
occ(240) 1
occ(307) 0
occ(241) 0
occ(242) 1
occ(783) 0
occ(243) 0
occ(245) 0
occ(22) 0
occ(246) 0
occ(247) 1
occ(23) 0
occ(249) 0
occ(250) 1
occ(253) 1
occ(10) 0
occ(254) 0
occ(255) 0
occ(257) 0
occ(17) 0
occ(258) 0
occ(259) 1
occ(19) 0
occ(260) 0
occ(261) 0
occ(290) 0
occ(262) 0
occ(264) 0
occ(268) 0
occ(265) 0
occ(1913) 0
occ(266) 0
occ(267) 0
occ(269) 0
occ(270) 0
occ(271) 0
occ(272) 0
occ(273) 0
occ(274) 0
occ(275) 0
occ(276) 0
occ(277) 0
occ(278) 0
occ(763) 1
occ(279) 1
occ(280) 1
occ(281) 0
occ(282) 0
occ(283) 0
occ(284) 0
occ(285) 0
occ(286) 0
occ(1632) 0
occ(287) 0
occ(288) 0
occ(289) 0
occ(291) 0
occ(292) 0
occ(293) 0
occ(294) 0
occ(295) 0
occ(296) 0
occ(297) 0
occ(298) 0
occ(299) 0
occ(300) 0
occ(301) 0
occ(3) 1
occ(302) 1
occ(15) 1
occ(303) 1
occ(252) 0
occ(308) 0
occ(309) 0
occ(310) 0
occ(311) 0
occ(312) 0
occ(313) 0
occ(314) 0
occ(315) 0
occ(316) 1
occ(317) 1
occ(318) 0
occ(319) 0
occ(320) 0
occ(321) 1
occ(322) 0
occ(323) 1
occ(324) 0
occ(325) 0
occ(326) 0
occ(327) 0
occ(328) 0
occ(329) 0
occ(330) 0
occ(331) 0
occ(332) 0
occ(333) 1
occ(334) 0
occ(335) 0
occ(336) 0
occ(337) 1
occ(338) 0
occ(339) 0
occ(340) 0
occ(341) 0
occ(342) 0
occ(343) 0
occ(344) 0
occ(781) 0
occ(345) 0
occ(346) 1
occ(347) 0
occ(349) 1
occ(350) 0
occ(351) 0
occ(352) 0
occ(35) 0
occ(353) 0
occ(354) 1
occ(355) 0
occ(356) 0
occ(357) 0
occ(358) 0
occ(359) 0
occ(360) 0
occ(361) 1
occ(362) 0
occ(363) 0
occ(364) 0
occ(365) 0
occ(366) 0
occ(367) 1
occ(368) 0
occ(369) 1
occ(370) 0
occ(371) 0
occ(372) 0
occ(373) 0
occ(374) 0
occ(375) 0
occ(376) 0
occ(377) 1
occ(378) 0
occ(379) 0
occ(380) 0
occ(381) 0
occ(382) 0
occ(383) 0
occ(384) 0
occ(385) 1
occ(1572) 0
occ(386) 0
occ(387) 0
occ(388) 1
occ(389) 1
occ(390) 1
occ(391) 1
occ(392) 0
occ(393) 0
occ(394) 0
occ(395) 0
occ(396) 1
occ(397) 0
occ(398) 0
occ(399) 0
occ(400) 0
occ(401) 0
occ(402) 1
occ(403) 0
occ(404) 0
occ(405) 0
occ(406) 0
occ(407) 0
occ(408) 0
occ(409) 0
occ(410) 1
occ(411) 0
occ(412) 0
occ(413) 1
occ(414) 0
occ(415) 0
occ(416) 0
occ(417) 0
occ(418) 0
occ(419) 0
occ(420) 0
occ(421) 1
occ(422) 0
occ(423) 0
occ(424) 0
occ(425) 0
occ(426) 0
occ(427) 0
occ(428) 0
occ(429) 0
occ(430) 0
occ(431) 0
occ(432) 0
occ(433) 0
occ(434) 0
occ(435) 0
occ(437) 0
occ(436) 0
occ(438) 0
occ(439) 1
occ(440) 0
occ(441) 0
occ(442) 0
occ(444) 0
occ(452) 0
occ(445) 0
occ(1916) 0
occ(446) 0
occ(447) 0
occ(448) 1
occ(449) 0
occ(450) 0
occ(451) 1
occ(453) 0
occ(455) 0
occ(456) 0
occ(457) 1
occ(458) 0
occ(459) 0
occ(460) 0
occ(461) 0
occ(462) 1
occ(463) 0
occ(464) 0
occ(465) 0
occ(466) 0
occ(467) 0
occ(468) 1
occ(469) 0
occ(470) 1
occ(471) 0
occ(454) 0
occ(472) 0
occ(473) 1
occ(474) 0
occ(475) 1
occ(476) 0
occ(477) 0
occ(500) 1
occ(479) 1
occ(481) 0
occ(482) 0
occ(484) 1
occ(478) 0
occ(485) 0
occ(1919) 0
occ(486) 0
occ(487) 0
occ(488) 0
occ(489) 0
occ(491) 0
occ(494) 0
occ(492) 0
occ(493) 0
occ(495) 1
occ(496) 0
occ(497) 1
occ(498) 0
occ(499) 0
occ(507) 0
occ(501) 0
occ(502) 0
occ(503) 1
occ(490) 0
occ(504) 0
occ(505) 1
occ(480) 0
occ(506) 0
occ(508) 1
occ(509) 0
occ(510) 0
occ(511) 1
occ(512) 1
occ(515) 0
occ(513) 0
occ(514) 0
occ(516) 1
occ(517) 1
occ(518) 0
occ(519) 1
occ(520) 0
occ(521) 0
occ(522) 1
occ(523) 0
occ(524) 1
occ(525) 1
occ(526) 1
occ(527) 0
occ(528) 0
occ(529) 0
occ(530) 1
occ(713) 0
occ(531) 0
occ(532) 0
occ(533) 0
occ(534) 0
occ(535) 0
occ(536) 0
occ(537) 0
occ(538) 0
occ(539) 0
occ(540) 0
occ(541) 0
occ(542) 0
occ(543) 0
occ(544) 0
occ(545) 1
occ(546) 1
occ(547) 1
occ(548) 0
occ(549) 1
occ(550) 0
occ(551) 1
occ(552) 1
occ(556) 0
occ(557) 0
occ(558) 0
occ(1084) 0
occ(560) 0
occ(1105) 1
occ(561) 1
occ(562) 1
occ(564) 0
occ(565) 0
occ(566) 0
occ(567) 0
occ(568) 1
occ(569) 1
occ(571) 0
occ(1348) 0
occ(572) 0
occ(573) 1
occ(574) 1
occ(575) 1
occ(576) 1
occ(577) 0
occ(578) 0
occ(579) 1
occ(580) 0
occ(581) 0
occ(582) 0
occ(587) 1
occ(583) 1
occ(584) 0
occ(586) 0
occ(589) 0
occ(590) 0
occ(591) 0
occ(592) 0
occ(593) 0
occ(594) 0
occ(596) 1
occ(597) 1
occ(600) 0
occ(601) 0
occ(602) 0
occ(603) 0
occ(604) 1
occ(605) 0
occ(606) 0
occ(607) 0
occ(608) 1
occ(622) 1
occ(609) 1
occ(645) 0
occ(610) 0
occ(611) 0
occ(612) 0
occ(613) 0
occ(614) 1
occ(615) 0
occ(616) 0
occ(598) 0
occ(617) 0
occ(618) 0
occ(620) 1
occ(621) 0
occ(646) 0
occ(625) 0
occ(623) 0
occ(627) 0
occ(628) 1
occ(629) 0
occ(624) 0
occ(630) 0
occ(633) 0
occ(631) 0
occ(632) 1
occ(634) 0
occ(637) 0
occ(635) 0
occ(636) 1
occ(638) 0
occ(639) 1
occ(640) 1
occ(641) 0
occ(642) 0
occ(643) 1
occ(644) 1
occ(647) 1
occ(626) 0
occ(648) 0
occ(649) 0
occ(599) 1
occ(650) 1
occ(619) 0
occ(651) 0
occ(652) 0
occ(653) 1
occ(654) 0
occ(655) 0
occ(656) 0
occ(657) 0
occ(658) 0
occ(659) 0
occ(660) 1
occ(661) 0
occ(662) 0
occ(663) 0
occ(595) 0
occ(664) 0
occ(665) 0
occ(666) 0
occ(667) 0
occ(668) 0
occ(669) 0
occ(670) 0
occ(671) 0
occ(672) 0
occ(443) 0
occ(673) 0
occ(674) 1
occ(675) 0
occ(676) 0
occ(677) 0
occ(678) 0
occ(679) 0
occ(680) 0
occ(681) 0
occ(683) 0
occ(684) 0
occ(685) 0
occ(686) 0
occ(687) 0
occ(688) 0
occ(689) 0
occ(690) 0
occ(682) 0
occ(691) 0
occ(1921) 0
occ(692) 0
occ(693) 0
occ(694) 1
occ(777) 0
occ(695) 0
occ(697) 1
occ(698) 0
occ(699) 0
occ(700) 0
occ(701) 0
occ(702) 0
occ(703) 0
occ(704) 0
occ(705) 0
occ(706) 0
occ(707) 0
occ(708) 1
occ(709) 0
occ(710) 0
occ(711) 1
occ(712) 1
occ(714) 0
occ(715) 0
occ(716) 0
occ(717) 0
occ(718) 0
occ(719) 1
occ(720) 1
occ(721) 1
occ(722) 0
occ(723) 0
occ(724) 0
occ(725) 1
occ(726) 1
occ(727) 0
occ(728) 1
occ(729) 0
occ(730) 0
occ(731) 1
occ(732) 0
occ(733) 0
occ(734) 0
occ(735) 0
occ(736) 1
occ(738) 1
occ(737) 0
occ(739) 0
occ(740) 0
occ(741) 0
occ(743) 0
occ(744) 0
occ(745) 1
occ(746) 0
occ(742) 1
occ(747) 1
occ(748) 0
occ(749) 0
occ(750) 1
occ(751) 0
occ(752) 0
occ(753) 1
occ(754) 0
occ(755) 0
occ(756) 0
occ(757) 0
occ(758) 1
occ(759) 1
occ(760) 0
occ(761) 0
occ(762) 1
occ(764) 0
occ(765) 0
occ(766) 1
occ(768) 0
occ(769) 1
occ(770) 1
occ(771) 0
occ(772) 0
occ(773) 1
occ(774) 0
occ(775) 0
occ(776) 0
occ(778) 0
occ(779) 1
occ(780) 0
occ(782) 0
occ(788) 0
occ(784) 0
occ(785) 1
occ(53) 0
occ(786) 0
occ(244) 1
occ(787) 1
occ(789) 1
occ(790) 0
occ(791) 0
occ(792) 0
occ(793) 0
occ(794) 0
occ(795) 0
occ(796) 0
occ(797) 0
occ(798) 1
occ(799) 0
occ(800) 1
occ(801) 0
occ(802) 1
occ(803) 0
occ(804) 0
occ(890) 0
occ(805) 0
occ(1528) 0
occ(807) 0
occ(808) 0
occ(891) 0
occ(809) 0
occ(1525) 0
occ(810) 0
occ(817) 0
occ(812) 0
occ(880) 0
occ(813) 0
occ(814) 1
occ(815) 1
occ(818) 0
occ(893) 0
occ(819) 0
occ(821) 1
occ(830) 0
occ(822) 0
occ(820) 1
occ(823) 1
occ(824) 0
occ(825) 0
occ(826) 0
occ(827) 0
occ(828) 0
occ(831) 0
occ(829) 0
occ(832) 0
occ(833) 1
occ(2150) 0
occ(834) 0
occ(835) 1
occ(2151) 0
occ(836) 0
occ(837) 1
occ(838) 0
occ(839) 0
occ(840) 0
occ(842) 1
occ(1831) 0
occ(843) 0
occ(845) 1
occ(844) 0
occ(846) 0
occ(847) 0
occ(848) 0
occ(849) 0
occ(850) 0
occ(851) 0
occ(852) 1
occ(853) 1
occ(696) 0
occ(856) 0
occ(857) 0
occ(858) 0
occ(859) 0
occ(860) 0
occ(89) 0
occ(861) 0
occ(862) 0
occ(864) 0
occ(866) 1
occ(868) 1
occ(869) 0
occ(870) 0
occ(873) 0
occ(871) 0
occ(875) 0
occ(872) 0
occ(874) 1
occ(876) 0
occ(877) 0
occ(878) 1
occ(879) 0
occ(881) 0
occ(882) 0
occ(883) 0
occ(884) 0
occ(885) 0
occ(886) 0
occ(887) 0
occ(888) 0
occ(889) 0
occ(816) 1
occ(892) 1
occ(894) 1
occ(895) 1
occ(896) 1
occ(897) 1
occ(899) 0
occ(900) 0
occ(901) 0
occ(902) 0
occ(903) 0
occ(904) 0
occ(905) 0
occ(906) 0
occ(907) 0
occ(908) 0
occ(909) 0
occ(910) 0
occ(911) 1
occ(913) 0
occ(912) 0
occ(914) 0
occ(915) 0
occ(916) 0
occ(917) 0
occ(918) 0
occ(919) 0
occ(920) 0
occ(921) 0
occ(922) 1
occ(923) 1
occ(925) 0
occ(926) 0
occ(927) 1
occ(928) 0
occ(929) 0
occ(930) 0
occ(931) 0
occ(932) 0
occ(933) 1
occ(934) 1
occ(935) 1
occ(936) 1
occ(937) 0
occ(938) 1
occ(939) 1
occ(924) 1
occ(940) 1
occ(941) 0
occ(942) 0
occ(943) 1
occ(944) 0
occ(945) 0
occ(946) 0
occ(947) 0
occ(948) 0
occ(949) 1
occ(950) 1
occ(951) 1
occ(952) 1
occ(953) 0
occ(954) 0
occ(955) 0
occ(956) 0
occ(957) 0
occ(958) 0
occ(959) 0
occ(553) 0
occ(960) 0
occ(961) 0
occ(962) 0
occ(980) 1
occ(963) 1
occ(965) 1
occ(966) 1
occ(967) 1
occ(1087) 1
occ(969) 1
occ(1108) 0
occ(970) 0
occ(971) 0
occ(972) 0
occ(1275) 0
occ(973) 0
occ(975) 0
occ(976) 0
occ(554) 0
occ(977) 0
occ(978) 0
occ(979) 0
occ(982) 1
occ(983) 1
occ(984) 1
occ(1070) 1
occ(985) 1
occ(988) 0
occ(989) 0
occ(1276) 0
occ(990) 0
occ(991) 0
occ(992) 1
occ(1352) 1
occ(994) 1
occ(995) 0
occ(996) 1
occ(555) 1
occ(997) 1
occ(998) 1
occ(999) 1
occ(964) 0
occ(1000) 0
occ(981) 0
occ(1001) 0
occ(1002) 0
occ(1003) 0
occ(1004) 0
occ(1110) 1
occ(1007) 1
occ(1008) 1
occ(1009) 1
occ(1277) 1
occ(1010) 1
occ(1353) 0
occ(1011) 0
occ(1012) 0
occ(1013) 0
occ(1014) 0
occ(1015) 0
occ(1016) 0
occ(1017) 1
occ(1018) 1
occ(1019) 0
occ(1020) 1
occ(1021) 1
occ(1022) 1
occ(1023) 1
occ(1024) 0
occ(1025) 0
occ(1026) 0
occ(1027) 0
occ(1028) 1
occ(1029) 0
occ(1030) 0
occ(1031) 0
occ(1032) 0
occ(1033) 0
occ(1034) 1
occ(1035) 1
occ(1036) 0
occ(1037) 1
occ(1038) 1
occ(1039) 1
occ(1040) 1
occ(1041) 0
occ(1042) 0
occ(1043) 0
occ(1044) 0
occ(1045) 1
occ(1046) 0
occ(1047) 0
occ(1048) 0
occ(1049) 0
occ(1050) 0
occ(1051) 1
occ(1052) 1
occ(1053) 0
occ(1054) 1
occ(1055) 1
occ(1056) 1
occ(1057) 1
occ(1058) 0
occ(1059) 0
occ(1060) 0
occ(1061) 0
occ(1062) 1
occ(1063) 0
occ(1064) 0
occ(1065) 0
occ(559) 0
occ(1066) 0
occ(1067) 0
occ(1068) 0
occ(968) 1
occ(1069) 1
occ(1005) 0
occ(1071) 0
occ(1072) 1
occ(1073) 1
occ(1074) 1
occ(1093) 1
occ(1075) 1
occ(1114) 0
occ(1076) 0
occ(1077) 0
occ(1078) 0
occ(1281) 0
occ(1079) 0
occ(1357) 1
occ(1080) 1
occ(1081) 0
occ(1082) 0
occ(1083) 0
occ(1085) 0
occ(1086) 0
occ(986) 1
occ(1088) 1
occ(1006) 0
occ(1089) 0
occ(1090) 1
occ(1091) 1
occ(1092) 1
occ(1115) 0
occ(1094) 0
occ(1095) 0
occ(1096) 0
occ(1282) 0
occ(1097) 0
occ(1098) 0
occ(1099) 1
occ(1314) 0
occ(1100) 0
occ(1358) 1
occ(1101) 1
occ(1102) 0
occ(1103) 1
occ(1104) 0
occ(1106) 1
occ(1107) 1
occ(987) 0
occ(1109) 0
occ(1111) 0
occ(1112) 0
occ(1113) 0
occ(1116) 1
occ(1152) 0
occ(1117) 0
occ(1118) 0
occ(1119) 0
occ(1120) 0
occ(1121) 0
occ(1122) 1
occ(1123) 1
occ(1283) 1
occ(1124) 1
occ(1125) 0
occ(1127) 1
occ(1128) 1
occ(1129) 0
occ(1130) 0
occ(1131) 0
occ(1132) 1
occ(1133) 0
occ(1134) 0
occ(1135) 0
occ(1136) 0
occ(1137) 1
occ(1138) 1
occ(1139) 0
occ(1140) 0
occ(1141) 0
occ(1142) 0
occ(1143) 0
occ(1144) 1
occ(1145) 0
occ(1146) 1
occ(1147) 1
occ(1148) 0
occ(1149) 0
occ(1150) 1
occ(563) 0
occ(1151) 0
occ(1153) 0
occ(1154) 1
occ(1155) 1
occ(1156) 1
occ(1157) 1
occ(1159) 1
occ(1160) 0
occ(1161) 0
occ(1162) 1
occ(1163) 0
occ(1164) 0
occ(1165) 0
occ(1166) 1
occ(1167) 1
occ(1168) 1
occ(1169) 1
occ(1170) 0
occ(1171) 1
occ(1172) 0
occ(1173) 0
occ(1174) 1
occ(1175) 0
occ(1176) 0
occ(1177) 0
occ(1178) 1
occ(1179) 1
occ(1180) 1
occ(1181) 1
occ(1182) 0
occ(1183) 1
occ(1184) 0
occ(1185) 0
occ(1186) 1
occ(1187) 0
occ(1188) 0
occ(1189) 0
occ(1190) 1
occ(1191) 1
occ(1192) 1
occ(1193) 1
occ(1194) 0
occ(1195) 1
occ(1196) 0
occ(1197) 0
occ(1198) 1
occ(1199) 0
occ(1200) 0
occ(1201) 0
occ(1202) 1
occ(1203) 1
occ(1204) 1
occ(1205) 1
occ(1206) 0
occ(1207) 1
occ(1208) 0
occ(1209) 0
occ(1210) 0
occ(1211) 0
occ(1212) 1
occ(1213) 0
occ(1215) 0
occ(1216) 0
occ(1217) 1
occ(1218) 0
occ(1219) 0
occ(1220) 1
occ(1221) 0
occ(1214) 1
occ(1222) 1
occ(1223) 0
occ(1224) 0
occ(1225) 0
occ(1226) 0
occ(1227) 0
occ(1229) 0
occ(1230) 0
occ(1231) 0
occ(1228) 1
occ(1232) 1
occ(1233) 0
occ(1235) 1
occ(1236) 1
occ(1237) 1
occ(1238) 1
occ(1239) 0
occ(1240) 0
occ(1241) 1
occ(1242) 0
occ(1243) 0
occ(1244) 0
occ(1245) 0
occ(1246) 0
occ(1247) 1
occ(1248) 1
occ(1249) 1
occ(1250) 0
occ(1251) 0
occ(1252) 0
occ(1253) 1
occ(1254) 1
occ(1255) 1
occ(1256) 1
occ(1257) 0
occ(1258) 0
occ(1259) 1
occ(1260) 0
occ(1261) 0
occ(1262) 0
occ(1263) 0
occ(1264) 0
occ(1265) 1
occ(1266) 1
occ(1267) 1
occ(1268) 0
occ(1269) 0
occ(1270) 1
occ(1271) 0
occ(570) 1
occ(1272) 1
occ(1273) 1
occ(1274) 1
occ(1278) 0
occ(1279) 0
occ(1280) 0
occ(1284) 1
occ(1158) 0
occ(1285) 0
occ(1286) 0
occ(1287) 0
occ(1288) 0
occ(1289) 0
occ(1290) 1
occ(1291) 1
occ(1292) 0
occ(1362) 0
occ(1293) 0
occ(1294) 1
occ(1295) 1
occ(1296) 0
occ(1297) 1
occ(1298) 0
occ(1299) 0
occ(1300) 0
occ(1301) 1
occ(1302) 0
occ(1303) 1
occ(1304) 0
occ(1305) 0
occ(1306) 1
occ(1307) 1
occ(1308) 0
occ(1309) 0
occ(1310) 1
occ(1311) 0
occ(1312) 1
occ(993) 0
occ(1313) 0
occ(1315) 1
occ(1316) 0
occ(1318) 1
occ(1319) 1
occ(1234) 0
occ(1320) 0
occ(192) 0
occ(1321) 0
occ(1322) 1
occ(1323) 1
occ(1324) 0
occ(1325) 0
occ(1326) 0
occ(1327) 0
occ(1328) 0
occ(1329) 0
occ(1330) 0
occ(1331) 0
occ(1332) 1
occ(1333) 0
occ(1334) 0
occ(1335) 0
occ(1336) 1
occ(1337) 1
occ(1338) 1
occ(1339) 1
occ(1340) 1
occ(1341) 0
occ(1342) 0
occ(1343) 0
occ(1344) 0
occ(1345) 0
occ(1346) 0
occ(1347) 0
occ(1349) 0
occ(1350) 0
occ(974) 1
occ(1351) 1
occ(1354) 1
occ(1355) 1
occ(1356) 1
occ(1126) 0
occ(1359) 0
occ(1360) 0
occ(1361) 0
occ(1363) 0
occ(1364) 1
occ(1317) 0
occ(1365) 0
occ(1366) 0
occ(1367) 0
occ(1368) 0
occ(1369) 0
occ(1370) 1
occ(1371) 0
occ(1372) 0
occ(1373) 1
occ(1374) 0
occ(1375) 1
occ(1376) 0
occ(1377) 1
occ(1379) 0
occ(1380) 1
occ(1381) 1
occ(1382) 1
occ(1383) 0
occ(1384) 0
occ(1385) 0
occ(1386) 0
occ(1387) 0
occ(1388) 1
occ(1389) 0
occ(1390) 1
occ(1391) 0
occ(1392) 1
occ(1393) 1
occ(1394) 1
occ(1395) 0
occ(1396) 0
occ(1397) 0
occ(1398) 0
occ(1399) 0
occ(1400) 1
occ(1401) 0
occ(1402) 1
occ(1403) 0
occ(1378) 0
occ(1404) 0
occ(1405) 0
occ(2198) 0
occ(1406) 0
occ(1407) 0
occ(1409) 1
occ(1408) 0
occ(1410) 0
occ(1411) 1
occ(1412) 0
occ(1413) 0
occ(1414) 0
occ(1415) 0
occ(1416) 0
occ(1417) 0
occ(1418) 0
occ(1419) 0
occ(1420) 0
occ(1421) 0
occ(1422) 0
occ(1423) 0
occ(1424) 0
occ(1425) 0
occ(1426) 0
occ(1427) 0
occ(1428) 0
occ(1429) 0
occ(1430) 0
occ(1431) 0
occ(1432) 1
occ(1433) 0
occ(1434) 0
occ(1435) 0
occ(1436) 0
occ(1437) 0
occ(1438) 0
occ(1440) 0
occ(1441) 0
occ(1442) 0
occ(1443) 0
occ(1444) 0
occ(1445) 0
occ(1446) 1
occ(1661) 0
occ(1447) 0
occ(1448) 0
occ(1449) 0
occ(1450) 1
occ(1452) 1
occ(1453) 1
occ(1454) 0
occ(1455) 0
occ(1456) 0
occ(1457) 0
occ(1458) 0
occ(1459) 0
occ(1460) 0
occ(1461) 0
occ(1462) 0
occ(1463) 0
occ(1464) 0
occ(1465) 0
occ(1517) 0
occ(1466) 0
occ(1467) 1
occ(1468) 0
occ(1469) 0
occ(1470) 1
occ(1471) 0
occ(1472) 0
occ(1473) 1
occ(1474) 0
occ(1475) 0
occ(1479) 1
occ(1476) 1
occ(1439) 0
occ(1477) 0
occ(1478) 0
occ(1480) 0
occ(1481) 0
occ(1482) 1
occ(1483) 0
occ(1484) 0
occ(1485) 0
occ(1486) 0
occ(1487) 0
occ(1488) 1
occ(1489) 0
occ(1490) 0
occ(1491) 0
occ(1492) 0
occ(1493) 0
occ(1494) 0
occ(1495) 1
occ(1496) 1
occ(1497) 1
occ(1498) 0
occ(1500) 0
occ(1499) 0
occ(1501) 0
occ(1502) 0
occ(1503) 0
occ(1504) 0
occ(1505) 0
occ(1506) 1
occ(1789) 0
occ(1507) 0
occ(1795) 1
occ(1508) 1
occ(1814) 1
occ(1509) 1
occ(2071) 0
occ(1510) 0
occ(2105) 0
occ(1511) 0
occ(1512) 0
occ(1513) 0
occ(1514) 0
occ(1515) 1
occ(1516) 0
occ(1518) 0
occ(1519) 1
occ(1520) 0
occ(1521) 0
occ(2072) 1
occ(1522) 1
occ(806) 0
occ(1523) 0
occ(1524) 0
occ(1526) 0
occ(1527) 0
occ(811) 0
occ(1529) 0
occ(1530) 1
occ(1531) 1
occ(1532) 0
occ(1533) 0
occ(1534) 1
occ(1535) 0
occ(1536) 0
occ(1537) 0
occ(1538) 0
occ(1539) 0
occ(1540) 1
occ(1541) 1
occ(1542) 0
occ(1543) 0
occ(1544) 0
occ(1545) 0
occ(1546) 0
occ(1547) 0
occ(1548) 0
occ(1549) 0
occ(1550) 0
occ(1551) 0
occ(1552) 0
occ(1553) 0
occ(1554) 0
occ(1555) 0
occ(1556) 0
occ(585) 0
occ(1557) 0
occ(588) 0
occ(1558) 0
occ(1559) 1
occ(1560) 1
occ(1771) 0
occ(1561) 0
occ(1562) 0
occ(1563) 0
occ(1564) 0
occ(1565) 0
occ(1566) 0
occ(1567) 0
occ(1568) 1
occ(1569) 0
occ(1570) 0
occ(1571) 0
occ(1573) 1
occ(1574) 0
occ(1575) 1
occ(1945) 0
occ(1576) 0
occ(1577) 1
occ(1578) 1
occ(1579) 0
occ(1580) 0
occ(1581) 1
occ(1582) 0
occ(1583) 1
occ(1584) 0
occ(1585) 0
occ(1586) 0
occ(1587) 0
occ(1588) 0
occ(1589) 0
occ(1590) 0
occ(1591) 0
occ(1592) 1
occ(1593) 0
occ(1594) 0
occ(1595) 0
occ(1596) 0
occ(1597) 1
occ(1598) 0
occ(1599) 0
occ(1600) 0
occ(1601) 0
occ(1602) 0
occ(1603) 1
occ(1604) 0
occ(1605) 0
occ(1606) 0
occ(1607) 0
occ(1608) 0
occ(1609) 0
occ(1610) 0
occ(1611) 0
occ(1612) 0
occ(2073) 0
occ(1613) 0
occ(1614) 0
occ(1615) 0
occ(1617) 0
occ(1616) 0
occ(1618) 0
occ(1619) 1
occ(1620) 1
occ(1621) 0
occ(1622) 1
occ(1981) 0
occ(1623) 0
occ(1624) 0
occ(1626) 1
occ(1625) 0
occ(1627) 0
occ(1628) 0
occ(1629) 0
occ(1630) 1
occ(1631) 0
occ(1633) 1
occ(1634) 1
occ(767) 0
occ(1635) 0
occ(1636) 0
occ(1637) 0
occ(1638) 0
occ(1639) 1
occ(1640) 0
occ(1641) 0
occ(1642) 0
occ(1643) 0
occ(1644) 1
occ(1645) 0
occ(1647) 1
occ(1648) 1
occ(1649) 1
occ(1868) 0
occ(1650) 0
occ(1876) 0
occ(1651) 0
occ(1653) 0
occ(1654) 0
occ(1655) 0
occ(1656) 0
occ(1657) 0
occ(1658) 0
occ(1659) 0
occ(1660) 0
occ(1451) 0
occ(1662) 0
occ(1663) 0
occ(1664) 0
occ(1665) 0
occ(1667) 0
occ(1833) 0
occ(1668) 0
occ(1669) 1
occ(1670) 1
occ(1671) 1
occ(1672) 0
occ(1673) 0
occ(1674) 0
occ(1675) 0
occ(2106) 0
occ(1676) 0
occ(1677) 0
occ(1678) 0
occ(1680) 1
occ(1681) 0
occ(1682) 0
occ(200) 0
occ(1683) 0
occ(1684) 0
occ(1685) 0
occ(1686) 1
occ(1687) 1
occ(1688) 0
occ(1689) 0
occ(1646) 1
occ(1690) 1
occ(1691) 1
occ(1886) 0
occ(1694) 0
occ(1695) 0
occ(1696) 1
occ(1904) 0
occ(1697) 0
occ(100) 1
occ(1698) 1
occ(1699) 0
occ(1700) 1
occ(1843) 0
occ(1702) 0
occ(1707) 1
occ(1703) 1
occ(1704) 1
occ(1705) 0
occ(1706) 0
occ(1708) 1
occ(1709) 0
occ(1743) 0
occ(1710) 0
occ(1711) 0
occ(1712) 1
occ(1713) 0
occ(1714) 1
occ(1715) 0
occ(1716) 0
occ(1717) 0
occ(1718) 0
occ(1719) 0
occ(1720) 0
occ(1721) 1
occ(1722) 0
occ(1723) 1
occ(1724) 0
occ(1725) 0
occ(1726) 0
occ(1727) 0
occ(1728) 0
occ(1729) 0
occ(1730) 0
occ(1731) 0
occ(1732) 1
occ(1733) 1
occ(1734) 1
occ(1735) 0
occ(1984) 0
occ(1736) 0
occ(1737) 0
occ(1738) 0
occ(1739) 0
occ(1740) 0
occ(1741) 0
occ(1742) 0
occ(1744) 1
occ(1750) 0
occ(1745) 0
occ(1746) 0
occ(1747) 0
occ(1748) 0
occ(1749) 0
occ(1751) 1
occ(1752) 0
occ(1753) 0
occ(1754) 0
occ(1755) 0
occ(1756) 0
occ(1757) 1
occ(1969) 0
occ(1758) 0
occ(1762) 1
occ(1759) 1
occ(2153) 0
occ(1760) 0
occ(1761) 1
occ(1764) 1
occ(1765) 0
occ(1766) 0
occ(1767) 0
occ(1768) 0
occ(1769) 0
occ(1770) 0
occ(1773) 1
occ(1774) 1
occ(1775) 1
occ(1776) 0
occ(1777) 0
occ(1778) 1
occ(1779) 0
occ(1780) 1
occ(2047) 0
occ(1782) 0
occ(1784) 1
occ(1785) 1
occ(1786) 1
occ(1787) 0
occ(1788) 0
occ(1781) 0
occ(1790) 0
occ(1791) 0
occ(1793) 1
occ(1794) 1
occ(1796) 0
occ(1797) 1
occ(1798) 0
occ(1799) 1
occ(1800) 0
occ(1801) 0
occ(1802) 1
occ(1803) 0
occ(1804) 0
occ(1805) 0
occ(1806) 0
occ(1807) 0
occ(1808) 0
occ(1810) 0
occ(1792) 0
occ(1811) 0
occ(1812) 1
occ(1813) 0
occ(1815) 0
occ(1816) 1
occ(2110) 0
occ(1817) 0
occ(1818) 1
occ(1819) 0
occ(1820) 0
occ(1821) 0
occ(1822) 0
occ(1823) 0
occ(1828) 1
occ(1829) 1
occ(1830) 1
occ(1832) 0
occ(1834) 1
occ(1835) 1
occ(898) 0
occ(1836) 0
occ(1837) 0
occ(1701) 0
occ(1838) 0
occ(2123) 0
occ(1839) 0
occ(1840) 1
occ(1842) 0
occ(2124) 0
occ(1845) 0
occ(1846) 1
occ(1847) 0
occ(1848) 1
occ(1849) 1
occ(1852) 0
occ(1854) 0
occ(1855) 0
occ(1856) 1
occ(1857) 0
occ(1858) 0
occ(1859) 0
occ(1860) 0
occ(1861) 0
occ(1862) 0
occ(1863) 0
occ(1864) 0
occ(1865) 0
occ(1866) 0
occ(1867) 0
occ(1692) 0
occ(1869) 0
occ(1870) 0
occ(1871) 0
occ(1889) 1
occ(1873) 1
occ(1874) 0
occ(1875) 1
occ(1693) 0
occ(1877) 0
occ(1772) 0
occ(1878) 0
occ(1879) 0
occ(1880) 0
occ(1881) 0
occ(1872) 1
occ(1882) 1
occ(1884) 1
occ(1652) 0
occ(1885) 0
occ(1887) 0
occ(1888) 0
occ(1883) 1
occ(1890) 1
occ(1891) 0
occ(1892) 0
occ(1893) 0
occ(1894) 0
occ(1895) 0
occ(1896) 0
occ(1897) 0
occ(1898) 0
occ(1899) 0
occ(1900) 1
occ(2200) 0
occ(1901) 0
occ(1902) 0
occ(1903) 1
occ(1905) 0
occ(1907) 0
occ(1908) 0
occ(1909) 1
occ(1911) 0
occ(263) 0
occ(1912) 0
occ(1914) 1
occ(1915) 1
occ(1917) 1
occ(1918) 1
occ(1920) 1
occ(1922) 1
occ(1923) 0
occ(1924) 1
occ(1925) 0
occ(1926) 0
occ(1927) 0
occ(1928) 0
occ(1929) 0
occ(1930) 0
occ(1931) 0
occ(1932) 0
occ(1933) 0
occ(1934) 1
occ(1935) 0
occ(1936) 1
occ(1937) 0
occ(1938) 0
occ(1939) 0
occ(1940) 0
occ(1941) 0
occ(1942) 0
occ(1943) 0
occ(1944) 0
occ(1946) 0
occ(1947) 0
occ(1948) 0
occ(1949) 0
occ(1950) 0
occ(1951) 0
occ(1952) 0
occ(1953) 0
occ(1954) 1
occ(1955) 1
occ(1956) 0
occ(1957) 0
occ(1958) 0
occ(1959) 1
occ(1960) 0
occ(1961) 0
occ(1962) 0
occ(1963) 0
occ(1964) 0
occ(1965) 1
occ(1966) 1
occ(1967) 0
occ(1968) 0
occ(1970) 0
occ(1971) 1
occ(1972) 0
occ(1973) 0
occ(1974) 0
occ(1975) 0
occ(1976) 0
occ(1977) 0
occ(1978) 0
occ(1979) 0
occ(1980) 0
occ(1982) 0
occ(1983) 1
occ(1985) 1
occ(1986) 0
occ(1987) 1
occ(1988) 0
occ(1989) 0
occ(1990) 0
occ(1991) 0
occ(1992) 0
occ(1993) 1
occ(1994) 0
occ(1995) 1
occ(1996) 0
occ(1997) 1
occ(1998) 0
occ(1999) 0
occ(2000) 0
occ(2001) 0
occ(2002) 0
occ(2003) 0
occ(2004) 0
occ(2011) 0
occ(2005) 0
occ(2006) 1
occ(2007) 0
occ(2008) 0
occ(2009) 1
occ(2010) 0
occ(2012) 0
occ(2013) 1
occ(2014) 0
occ(2015) 0
occ(2016) 0
occ(2017) 0
occ(2018) 0
occ(2019) 0
occ(2020) 0
occ(2021) 0
occ(2022) 0
occ(2023) 0
occ(2024) 0
occ(2025) 0
occ(2026) 0
occ(2027) 0
occ(2028) 0
occ(2029) 0
occ(2030) 0
occ(2031) 0
occ(2032) 0
occ(2033) 0
occ(2034) 0
occ(2035) 0
occ(2036) 0
occ(2037) 0
occ(2038) 0
occ(2039) 0
occ(2040) 0
occ(2041) 0
occ(2042) 0
occ(2043) 0
occ(2044) 0
occ(2045) 1
occ(2046) 0
occ(2048) 0
occ(1783) 0
occ(2049) 0
occ(2050) 0
occ(202) 0
occ(2051) 0
occ(2052) 0
occ(2053) 0
occ(2054) 0
occ(2055) 1
occ(2056) 1
occ(2057) 0
occ(2058) 1
occ(2059) 0
occ(2060) 0
occ(2061) 0
occ(2062) 0
occ(2063) 0
occ(2064) 1
occ(2065) 0
occ(2066) 1
occ(2067) 0
occ(2068) 1
occ(2069) 1
occ(2070) 0
occ(2074) 1
occ(1809) 0
occ(2075) 0
occ(2076) 0
occ(2077) 0
occ(2078) 0
occ(2079) 0
occ(2080) 0
occ(2081) 0
occ(2082) 0
occ(2083) 0
occ(2084) 0
occ(2085) 0
occ(2086) 0
occ(2087) 0
occ(2088) 0
occ(2089) 0
occ(2090) 1
occ(2091) 1
occ(2092) 0
occ(2093) 0
occ(2094) 0
occ(2095) 0
occ(2096) 1
occ(2097) 0
occ(2098) 1
occ(2099) 0
occ(2100) 0
occ(2101) 0
occ(2102) 0
occ(2103) 1
occ(2104) 0
occ(2107) 1
occ(2108) 0
occ(2109) 0
occ(2111) 0
occ(2112) 0
occ(2113) 1
occ(2114) 0
occ(1844) 0
occ(2115) 0
occ(1906) 1
occ(2116) 1
occ(1910) 0
occ(2117) 0
occ(2118) 0
occ(2119) 0
occ(2120) 1
occ(2121) 0
occ(2125) 0
occ(2126) 1
occ(2127) 1
occ(2128) 0
occ(2129) 0
occ(2130) 0
occ(1851) 0
occ(2132) 0
occ(2133) 1
occ(2134) 1
occ(2135) 1
occ(2136) 1
occ(2137) 0
occ(2138) 0
occ(2139) 0
occ(2140) 0
occ(2141) 0
occ(1853) 0
occ(2143) 0
occ(2144) 1
occ(2145) 1
occ(2146) 1
occ(230) 0
occ(2148) 0
occ(2149) 0
occ(2152) 0
occ(1763) 0
occ(2154) 0
occ(2122) 0
occ(2155) 0
occ(2156) 1
occ(2157) 0
occ(2158) 1
occ(2159) 0
occ(2160) 0
occ(2161) 0
occ(2162) 0
occ(2163) 0
occ(2164) 0
occ(2165) 0
occ(2166) 0
occ(2167) 0
occ(2168) 0
occ(2169) 0
occ(2170) 0
occ(2171) 0
occ(2172) 0
occ(2173) 0
occ(2174) 0
occ(2175) 0
occ(2176) 0
occ(2177) 0
occ(2178) 0
occ(2179) 0
occ(2180) 0
occ(2181) 0
occ(2182) 0
occ(2183) 0
occ(2184) 0
occ(2185) 0
occ(2186) 0
occ(2187) 0
occ(2188) 0
occ(2189) 0
occ(2190) 0
occ(2191) 1
occ(2192) 0
occ(2193) 0
occ(483) 0
occ(2194) 0
occ(2195) 0
occ(2196) 1
occ(2197) 0
occ(2199) 1
occ(2201) 1
occ(2202) 0
occ(2203) 0
p(0) 1
p(2) 0
p(3) 0
p(5) 1
p(6) 1
p(8) 1
p(7) 0
p(9) 0
p(10) 1
p(11) 1
p(12) 0
p(14) 1
p(15) 1
p(17) 0
p(16) 1
p(18) 1
p(19) 1
p(21) 1
p(22) 0
p(24) 1
p(1) 1
p(26) 0
p(4) 1
p(27) 1
p(28) 1
p(29) 1
p(31) 0
p(33) 1
p(32) 0
p(35) 1
p(36) 1
p(37) 1
p(38) 1
p(39) 0
p(41) 1
p(42) 1
p(43) 0
p(44) 0
p(46) 1
p(45) 0
p(48) 1
p(47) 1
p(49) 1
p(50) 0
p(51) 1
p(53) 1
p(40) 0
p(34) 1
p(30) 0
p(55) 0
p(54) 0
p(56) 0
p(57) 1
p(58) 0
p(59) 0
p(60) 1
p(61) 0
p(62) 1
p(63) 0
p(64) 0
p(65) 1
p(66) 1
p(67) 1
p(70) 1
p(71) 1
p(72) 0
p(73) 1
p(74) 0
p(75) 1
p(76) 1
p(79) 1
p(78) 0
p(80) 1
p(82) 0
p(81) 0
p(84) 1
p(83) 0
p(86) 1
p(85) 0
p(88) 1
p(87) 0
p(89) 0
p(90) 1
p(92) 1
p(91) 0
p(93) 1
p(95) 1
p(94) 0
p(96) 0
p(97) 1
p(98) 0
p(100) 0
p(99) 1
p(101) 0
p(102) 0
p(103) 0
p(105) 0
p(104) 0
p(106) 1
p(107) 1
p(108) 0
p(109) 0
p(110) 1
p(111) 0
p(112) 1
p(113) 0
p(114) 1
p(115) 0
p(116) 1
p(117) 1
p(118) 1
p(119) 0
p(120) 0
p(121) 0
p(122) 0
p(123) 1
p(124) 0
p(126) 1
p(125) 1
p(128) 1
p(127) 0
p(130) 0
p(129) 1
p(131) 1
p(132) 0
p(133) 0
p(135) 1
p(134) 0
p(136) 0
p(137) 1
p(138) 0
p(140) 0
p(139) 0
p(141) 0
p(142) 1
p(143) 1
p(144) 0
p(145) 1
p(146) 1
p(68) 0
p(147) 0
p(148) 0
p(150) 1
p(149) 1
p(152) 0
p(154) 1
p(153) 0
p(156) 1
p(159) 0
p(158) 0
p(161) 1
p(160) 1
p(162) 1
p(163) 1
p(164) 1
p(165) 1
p(166) 0
p(167) 0
p(169) 1
p(168) 1
p(170) 1
p(171) 1
p(172) 1
p(173) 0
p(25) 0
p(13) 1
p(20) 0
p(23) 1
p(175) 1
p(174) 1
p(177) 1
p(179) 1
p(178) 1
p(176) 0
p(180) 0
p(181) 0
p(182) 0
p(183) 0
p(184) 1
p(185) 0
p(186) 1
p(187) 0
p(188) 0
p(189) 0
p(190) 1
p(191) 0
p(192) 0
p(193) 1
p(194) 1
p(195) 1
p(196) 1
p(197) 1
p(198) 0
p(199) 1
p(200) 1
p(201) 1
p(202) 1
p(203) 1
p(204) 0
p(205) 1
p(206) 0
p(207) 1
p(208) 1
p(209) 0
p(211) 1
p(210) 1
p(212) 1
p(213) 1
p(214) 0
p(215) 0
p(216) 1
p(217) 1
p(218) 1
p(219) 0
p(221) 1
p(220) 0
p(222) 1
p(223) 1
p(224) 0
p(225) 1
p(226) 1
p(227) 0
p(228) 0
p(229) 1
p(230) 1
p(232) 1
p(231) 0
p(234) 1
p(233) 0
p(235) 1
p(236) 1
p(237) 1
p(238) 1
p(239) 1
p(241) 1
p(240) 0
p(243) 1
p(244) 1
p(246) 1
p(247) 1
p(248) 0
p(249) 0
p(250) 1
p(251) 1
p(252) 0
p(254) 1
p(253) 1
p(245) 0
p(255) 1
p(256) 1
p(257) 1
p(259) 1
p(261) 0
p(263) 1
p(262) 1
p(265) 0
p(264) 0
p(258) 0
p(267) 0
p(266) 1
p(268) 1
p(269) 0
p(270) 0
p(271) 1
p(272) 1
p(273) 0
p(274) 0
p(275) 1
p(276) 1
p(278) 1
p(277) 0
p(279) 0
p(280) 0
p(281) 1
p(282) 0
p(283) 1
p(284) 0
p(285) 1
p(286) 1
p(287) 1
p(288) 1
p(289) 1
p(290) 0
p(291) 1
p(292) 0
p(293) 1
p(294) 1
p(295) 1
p(299) 0
p(300) 0
p(301) 0
p(303) 0
p(304) 1
p(305) 1
p(307) 0
p(308) 0
p(309) 0
p(310) 0
p(311) 1
p(312) 1
p(314) 0
p(315) 0
p(316) 1
p(317) 1
p(319) 1
p(318) 1
p(320) 1
p(322) 1
p(324) 1
p(323) 1
p(325) 0
p(326) 1
p(328) 0
p(330) 1
p(329) 0
p(333) 0
p(334) 0
p(335) 0
p(336) 1
p(337) 0
p(338) 0
p(339) 1
p(340) 1
p(341) 0
p(342) 1
p(343) 0
p(344) 1
p(331) 1
p(345) 1
p(346) 1
p(347) 0
p(349) 1
p(348) 0
p(332) 0
p(350) 0
p(351) 1
p(352) 1
p(353) 1
p(354) 1
p(355) 1
p(327) 0
p(356) 1
p(357) 0
p(242) 0
p(358) 1
p(359) 1
p(360) 1
p(361) 1
p(362) 0
p(363) 1
p(365) 0
p(364) 0
p(366) 0
p(367) 0
p(368) 1
p(369) 1
p(370) 1
p(371) 1
p(372) 0
p(374) 1
p(373) 0
p(375) 0
p(376) 0
p(377) 0
p(378) 1
p(379) 1
p(380) 0
p(381) 0
p(382) 0
p(52) 0
p(383) 0
p(384) 1
p(385) 0
p(386) 1
p(388) 1
p(387) 1
p(390) 1
p(389) 1
p(391) 0
p(392) 0
p(393) 1
p(395) 0
p(396) 1
p(397) 1
p(398) 1
p(399) 1
p(400) 1
p(401) 0
p(402) 1
p(403) 1
p(404) 0
p(405) 1
p(406) 1
p(407) 0
p(409) 1
p(408) 1
p(410) 0
p(411) 0
p(412) 1
p(413) 1
p(69) 1
p(415) 0
p(414) 1
p(416) 1
p(417) 1
p(418) 1
p(420) 1
p(419) 0
p(421) 1
p(422) 1
p(423) 1
p(424) 0
p(425) 1
p(298) 1
p(426) 1
p(427) 0
p(296) 0
p(297) 0
p(428) 0
p(302) 0
p(313) 1
p(429) 1
p(430) 1
p(431) 1
p(432) 1
p(433) 0
p(434) 1
p(435) 0
p(436) 0
p(437) 0
p(438) 0
p(439) 0
p(306) 0
p(440) 1
p(441) 1
p(442) 0
p(443) 1
p(444) 1
p(445) 1
p(446) 1
p(448) 0
p(449) 0
p(447) 1
p(450) 0
p(452) 1
p(453) 1
p(454) 1
p(455) 1
p(456) 0
p(451) 0
p(151) 0
p(457) 0
p(458) 0
p(459) 0
p(460) 0
p(462) 1
p(461) 1
p(464) 0
p(463) 0
p(260) 0
p(465) 0
p(466) 1
p(467) 0
p(468) 1
p(469) 0
p(470) 1
p(471) 1
p(472) 1
p(473) 1
p(475) 1
p(474) 1
p(476) 1
p(478) 1
p(477) 1
p(480) 0
p(481) 1
p(482) 0
p(483) 0
p(484) 0
p(485) 0
p(486) 1
p(487) 0
p(489) 0
p(488) 0
p(490) 1
p(491) 1
p(492) 1
p(494) 0
p(493) 1
p(495) 0
p(496) 1
p(497) 1
p(498) 0
p(499) 0
p(479) 1
p(500) 0
p(502) 0
p(501) 0
p(504) 0
p(503) 0
p(506) 1
p(505) 1
p(507) 1
p(508) 1
p(509) 0
p(510) 0
p(511) 1
p(513) 1
p(512) 0
p(514) 1
p(515) 1
p(516) 1
p(517) 1
p(518) 1
p(77) 0
p(519) 0
p(520) 1
p(521) 1
p(394) 1
p(522) 1
p(523) 0
p(525) 1
p(524) 0
p(526) 1
p(527) 0
p(528) 0
p(529) 0
p(530) 0
p(531) 0
p(533) 0
p(532) 0
p(321) 0
p(534) 0
p(535) 0
p(537) 1
p(536) 0
p(538) 1
p(539) 0
p(540) 0
p(541) 0
p(542) 0
p(543) 1
p(544) 1
p(545) 0
p(546) 1
p(547) 1
p(548) 1
p(549) 0
p(550) 1
p(551) 1
p(553) 0
p(552) 0
p(555) 0
p(554) 0
p(556) 1
p(557) 0
p(558) 1
p(559) 0
p(560) 1
p(561) 1
p(563) 1
p(562) 0
p(565) 0
p(564) 0
p(567) 1
p(566) 1
p(568) 1
p(570) 1
p(569) 0
p(571) 1
p(573) 0
p(572) 1
p(574) 1
p(575) 1
p(576) 1
p(577) 1
p(579) 1
p(578) 1
p(581) 0
p(582) 0
p(583) 1
p(584) 1
p(586) 0
p(585) 0
p(587) 0
p(589) 1
p(588) 1
p(590) 1
p(591) 0
p(155) 1
p(593) 0
p(592) 0
p(594) 0
p(596) 0
p(595) 0
p(597) 0
p(598) 1
p(580) 1
p(599) 1
p(600) 0
p(602) 0
p(601) 0
p(603) 1
p(604) 0
p(605) 0
p(606) 1
p(607) 0
p(608) 1
p(609) 0
p(610) 0
p(611) 0
p(612) 1
p(613) 1
p(614) 1
p(615) 1
p(616) 0
p(618) 0
p(617) 1
p(620) 0
p(619) 0
p(621) 0
p(622) 1
p(623) 0
p(624) 1
p(625) 1
p(626) 1
p(627) 1
p(628) 0
p(629) 0
p(630) 0
p(632) 0
p(633) 1
p(634) 1
p(635) 1
p(636) 1
p(637) 0
p(638) 0
p(639) 1
p(640) 1
p(642) 1
p(643) 1
p(644) 1
p(645) 1
p(646) 1
p(647) 0
p(631) 0
p(648) 1
p(157) 1
p(649) 0
p(650) 1
p(652) 1
p(651) 1
p(653) 1
p(654) 1
p(655) 1
p(656) 1
p(657) 1
p(658) 1
p(659) 1
p(660) 1
p(661) 1
p(662) 1
p(663) 1
p(664) 0
p(665) 0
p(666) 0
p(667) 0
p(668) 1
p(669) 0
p(670) 1
p(671) 0
p(641) 0
p(673) 0
p(672) 0
p(674) 1
p(675) 0
p(676) 1
p(677) 1
p(678) 1
